p wcnf 174 87 88 
1 -81 -42 0 
1 56 -156 0 
1 -91 -7 0 
1 169 81 0 
1 6 49 0 
1 85 33 0 
1 -35 -151 0 
1 21 -145 0 
1 140 62 0 
1 -97 -102 0 
1 -151 147 0 
1 -140 98 0 
1 -45 -71 0 
1 84 146 0 
1 83 92 0 
1 -12 72 0 
1 24 -49 0 
1 -118 1 0 
1 -33 -71 0 
1 50 -155 0 
1 -57 67 0 
1 147 114 0 
1 45 166 0 
1 138 -125 0 
1 46 -155 0 
1 61 13 0 
1 129 16 0 
1 81 87 0 
1 -14 44 0 
1 104 -141 0 
1 -3 -94 0 
1 63 107 0 
1 -8 -137 0 
1 91 -97 0 
1 -4 159 0 
1 50 112 0 
1 -129 -105 0 
1 64 -4 0 
1 -133 -66 0 
1 37 36 0 
1 -132 32 0 
1 -28 120 0 
1 133 50 0 
1 174 123 0 
1 -4 59 0 
1 12 67 0 
1 -12 -32 0 
1 97 -79 0 
1 -73 25 0 
1 72 6 0 
1 126 51 0 
1 9 -81 0 
1 -30 -66 0 
1 81 63 0 
1 -174 -60 0 
1 -75 72 0 
1 -26 -126 0 
1 -138 -73 0 
1 -117 137 0 
1 -147 -39 0 
1 -48 103 0 
1 13 88 0 
1 115 128 0 
1 160 82 0 
1 134 42 0 
1 55 -30 0 
1 -171 -73 0 
1 -85 -146 0 
1 81 121 0 
1 1 28 0 
1 -88 131 0 
1 -69 -36 0 
1 155 -19 0 
1 -162 20 0 
1 -137 174 0 
1 154 -13 0 
1 -66 33 0 
1 54 -18 0 
1 54 172 0 
1 14 106 0 
1 73 68 0 
1 -115 -157 0 
1 1 98 0 
1 123 113 0 
1 53 172 0 
1 166 -163 0 
1 118 83 0 
